NAME          
ROWS
 N  OBJ
 L  c1
 L  c2
COLUMNS
    MARKER    'MARKER'                 'INTORG'
    x[1]      c1        842
    x[1]      c2        922
    x[1]      OBJ       -424
    x[2]      c1        900
    x[2]      c2        959
    x[2]      OBJ       -80
    x[3]      c1        628
    x[3]      c2        146
    x[3]      OBJ       -14
    x[4]      c1        672
    x[4]      c2        51
    x[4]      OBJ       -924
    x[5]      c1        70
    x[5]      c2        987
    x[5]      OBJ       -421
    x[6]      c1        915
    x[6]      c2        533
    x[6]      OBJ       -960
    x[7]      c1        186
    x[7]      c2        650
    x[7]      OBJ       -29
    x[8]      c1        298
    x[8]      c2        81
    x[8]      OBJ       -730
    x[9]      c1        146
    x[9]      c2        315
    x[9]      OBJ       -366
    x[10]     c1        823
    x[10]     c2        635
    x[10]     OBJ       -832
    x[11]     c1        366
    x[11]     c2        524
    x[11]     OBJ       -611
    x[12]     c1        870
    x[12]     c2        332
    x[12]     OBJ       -723
    x[13]     c1        749
    x[13]     c2        702
    x[13]     OBJ       -3
    x[14]     c1        146
    x[14]     c2        422
    x[14]     OBJ       -847
    x[15]     c1        686
    x[15]     c2        548
    x[15]     OBJ       -730
RHS
    rhs       c1        4148
    rhs       c2        3904
RANGES
BOUNDS
 BV bounds    x[1]
 BV bounds    x[2]
 BV bounds    x[3]
 BV bounds    x[4]
 BV bounds    x[5]
 BV bounds    x[6]
 BV bounds    x[7]
 BV bounds    x[8]
 BV bounds    x[9]
 BV bounds    x[10]
 BV bounds    x[11]
 BV bounds    x[12]
 BV bounds    x[13]
 BV bounds    x[14]
 BV bounds    x[15]
ENDATA
